benchmarks_vrp/CMT12/min_c/CMT12_5.vrp
NAME: CMT12_5
TYPE: CVRP
COMMENT: 819.56 - Cluster Nr.5
DIMENSION: 10
CAPACITY: 200
EDGE_WEIGHT_TYPE: EUC_2D
NODE_COORD_TYPE: TWOD_COORDS
NODE_COORD_SECTION: 
3 95 35
10 95 30
2 88 30
4 87 30
6 85 25
7 40 50
9 90 35
8 85 35
1 92 30
5 88 35
DEPOT_SECTION: 
7
-1
DEMAND_SECTION: 
2 10
9 10
8 30
1 10
4 10
7 0
3 20
5 20
6 10
10 30
EOF
