benchmarks_vrp/CMT12/min_c/CMT12_5.tour
NAME: CMT12_5 solution
TYPE: TOUR
TOUR_SECTION:
7 6 4 2 1 10 3 9 5 8 -1
-1
EOF